nbGenes = 10;
preference = [[0 22 31 98 27 42 69 66 87 48 ]
[78 0 31 33 22 20 53 38 29 72 ]
[69 69 0 73 92 29 65 4 24 48 ]
[2 67 27 0 12 54 83 2 5 55 ]
[73 78 8 88 0 79 86 66 23 51 ]
[58 80 71 46 21 0 74 46 88 35 ]
[31 47 35 17 14 26 0 41 61 39 ]
[34 62 96 98 34 54 59 0 53 54 ]
[13 71 76 95 77 12 39 47 0 14 ]
[52 28 52 45 49 65 61 46 86 0 ]
];
